proyfinal/src/viki/013/experimentInOfficeAgust.take6.output/758aef91-a7e9-4c94-8b11-05adcc52c238.als.out
Reading from standard input... Use '--help' for help.
============================[ Problem Statistics ]=============================
|                                                                             |
|  Number of variables:         87638                                         |
|  Number of clauses:          161767                                         |
|  Parse time:                   0.03 s                                       |
|                                                                             |
============================[ Search Statistics ]==============================
| Conflicts |          ORIGINAL         |          LEARNT          | Progress |
|           |    Vars  Clauses Literals |    Limit  Clauses Lit/Cl |          |
===============================================================================
|       100 |   63840   110388   275879 |    40475      100     40 | 27.155 % |
|       250 |   63839   110344   275789 |    44523      249     44 | 27.156 % |
|       475 |   63839   110344   275789 |    48975      474     53 | 27.156 % |
|       812 |   63839   110344   275789 |    53873      811     84 | 27.156 % |
|      1318 |   63819   110260   275596 |    59260     1312     90 | 27.179 % |
|      2077 |   63819   110260   275596 |    65186     2071     85 | 27.179 % |
|      3216 |   63747   109960   274909 |    71704     3201     93 | 27.261 % |
|      4924 |   63747   109960   274909 |    78875     4909     99 | 27.261 % |
|      7486 |   53290    79203   199260 |    86763     7443     87 | 39.193 % |
|     11330 |   52759    77201   194385 |    95439    11128     83 | 39.799 % |
|     17096 |   52312    76610   192969 |   104983    16872     78 | 40.309 % |
===============================================================================
restarts              : 63
conflicts             : 17921          (6855 /sec)
decisions             : 58169          (0.00 % random) (22252 /sec)
propagations          : 27558460       (10542119 /sec)
conflict literals     : 1385083        (46.44 % deleted)
Memory used           : 25.44 MB
CPU time              : 2.61413 s

INDETERMINATE
